80 80
86 67 1
76 68 1
54 63 1
64 72 1
75 87 1
81 78 1
100 89 1
76 88 1
77 69 1
99 50 1
57 77 1
99 66 1
91 62 1
27 90 1
77 76 1
83 56 1
16 78 1
67 80 1
57 87 1
80 57 1
3 90 1
69 88 1
50 60 1
88 70 1
50 63 1
84 56 1
54 95 1
57 96 1
60 53 1
59 87 1
70 91 1
89 82 1
83 55 1
98 30 1
48 99 1
82 80 1
66 69 1
95 83 1
37 78 1
86 90 1
61 94 1
55 99 1
88 99 1
52 61 1
67 81 1
28 27 1
50 91 1
80 95 1
86 79 1
61 65 1
75 96 1
79 39 1
77 40 1
7 16 1
60 61 1
71 96 1
57 61 1
64 78 1
58 89 1
84 63 1
61 95 1
33 2 1
18 85 1
72 44 1
27 94 1
63 88 1
88 80 1
96 85 1
52 97 1
55 85 1
71 93 1
93 88 1
92 65 1
59 94 1
65 66 1
67 3 1
42 97 1
74 64 1
21 67 1
74 79 1
100 100 
100 100 
100 100 
100 100 
100 100 
100 100 
100 100 
100 100 
100 100 
100 100 
100 100 
100 100 
100 100 
100 100 
100 100 
100 100 
100 100 
100 100 
100 100 
100 100 
100 100 
100 100 
100 100 
100 100 
100 100 
100 100 
100 100 
100 100 
100 100 
100 100 
100 100 
100 100 
100 100 
100 100 
100 100 
100 100 
100 100 
100 100 
100 100 
100 100 
100 100 
100 100 
100 100 
100 100 
100 100 
100 100 
100 100 
100 100 
100 100 
100 100 
100 100 
100 100 
100 100 
100 100 
100 100 
100 100 
100 100 
100 100 
100 100 
100 100 
100 100 
100 100 
100 100 
100 100 
100 100 
100 100 
100 100 
100 100 
100 100 
100 100 
100 100 
100 100 
100 100 
100 100 
100 100 
100 100 
100 100 
100 100 
100 100 
100 100 
